; benchmark generated from python API
(set-info :status unknown)
(declare-fun x_days () (_ BitVec 32))
(declare-fun y_days () (_ BitVec 32))
(assert
 (bvsle (_ bv4294930771 32) x_days))
(assert
 (bvsge (_ bv36523 32) x_days))
(assert
 (bvsle (_ bv4294930771 32) y_days))
(assert
 (bvsge (_ bv36523 32) y_days))
(assert
 (bvsge x_days (_ bv8492 32)))
(assert
 (let ((?x1400 (bvadd x_days (_ bv730179 32))))
 (let ((?x909 (bvsmod ?x1400 (_ bv146097 32))))
 (let ((?x2419 (bvsdiv ?x909 (_ bv36524 32))))
 (let ((?x3455 (ite (bvsle (_ bv4 32) ?x2419) (_ bv3 32) ?x2419)))
 (let ((?x4113 (bvsub ?x909 (bvmul ?x3455 (_ bv36524 32)))))
 (let ((?x3940 (bvsmod ?x4113 (_ bv1461 32))))
 (let ((?x5257 (bvsdiv ?x3940 (_ bv365 32))))
 (let ((?x4459 (ite (bvsle (_ bv4 32) ?x5257) (_ bv3 32) ?x5257)))
 (let ((?x619 (bvadd (bvadd (bvmul (bvsdiv ?x1400 (_ bv146097 32)) (_ bv400 32)) (bvmul ?x3455 (_ bv100 32))) (bvmul (bvsdiv ?x4113 (_ bv1461 32)) (_ bv4 32)))))
 (let ((?x1760 (bvadd (bvadd ?x619 ?x4459) (_ bv1 32))))
 (let (($x22062 (or (and (= (bvsmod ?x1760 (_ bv4 32)) (_ bv0 32)) (and (distinct (bvsmod ?x1760 (_ bv100 32)) (_ bv0 32)) true)) (= (bvsmod ?x1760 (_ bv400 32)) (_ bv0 32)))))
 (let ((?x3783 (bvsub ?x3940 (bvmul ?x4459 (_ bv365 32)))))
 (let ((?x1184 (ite $x22062 (_ bv31 32) (_ bv31 32))))
 (let (($x1654 (bvsge ?x3783 ?x1184)))
 (let ((?x4110 (ite $x1654 (bvadd (bvsub ?x3783 ?x1184) (_ bv1 32)) (bvadd (bvsub ?x3783 (ite $x22062 (_ bv0 32) (_ bv0 32))) (_ bv1 32)))))
 (let ((?x4045 (ite $x22062 (_ bv60 32) (_ bv59 32))))
 (let (($x25777 (bvsge ?x3783 ?x4045)))
 (let ((?x4827 (ite $x22062 (_ bv91 32) (_ bv90 32))))
 (let (($x3906 (bvsge ?x3783 ?x4827)))
 (let ((?x4615 (ite $x3906 (bvadd (bvsub ?x3783 ?x4827) (_ bv1 32)) (ite $x25777 (bvadd (bvsub ?x3783 ?x4045) (_ bv1 32)) ?x4110))))
 (let ((?x6890 (ite $x22062 (_ bv121 32) (_ bv120 32))))
 (let (($x689 (bvsge ?x3783 ?x6890)))
 (let ((?x4236 (ite $x22062 (_ bv152 32) (_ bv151 32))))
 (let (($x3365 (bvsge ?x3783 ?x4236)))
 (let ((?x4499 (ite $x3365 (bvadd (bvsub ?x3783 ?x4236) (_ bv1 32)) (ite $x689 (bvadd (bvsub ?x3783 ?x6890) (_ bv1 32)) ?x4615))))
 (let ((?x1031 (ite $x22062 (_ bv182 32) (_ bv181 32))))
 (let (($x4038 (bvsge ?x3783 ?x1031)))
 (let ((?x2931 (ite $x22062 (_ bv213 32) (_ bv212 32))))
 (let (($x524 (bvsge ?x3783 ?x2931)))
 (let ((?x3362 (ite $x524 (bvadd (bvsub ?x3783 ?x2931) (_ bv1 32)) (ite $x4038 (bvadd (bvsub ?x3783 ?x1031) (_ bv1 32)) ?x4499))))
 (let ((?x754 (ite $x22062 (_ bv244 32) (_ bv243 32))))
 (let (($x1141 (bvsge ?x3783 ?x754)))
 (let ((?x713 (ite $x22062 (_ bv274 32) (_ bv273 32))))
 (let (($x1285 (bvsge ?x3783 ?x713)))
 (let ((?x4158 (ite $x1285 (bvadd (bvsub ?x3783 ?x713) (_ bv1 32)) (ite $x1141 (bvadd (bvsub ?x3783 ?x754) (_ bv1 32)) ?x3362))))
 (let ((?x1645 (ite $x22062 (_ bv305 32) (_ bv304 32))))
 (let (($x1425 (bvsge ?x3783 ?x1645)))
 (let ((?x2554 (ite $x22062 (_ bv335 32) (_ bv334 32))))
 (let (($x5324 (bvsge ?x3783 ?x2554)))
 (let ((?x4156 (ite $x5324 (bvadd (bvsub ?x3783 ?x2554) (_ bv1 32)) (ite $x1425 (bvadd (bvsub ?x3783 ?x1645) (_ bv1 32)) ?x4158))))
 (let ((?x4176 (ite $x3365 (_ bv6 32) (ite $x689 (_ bv5 32) (ite $x3906 (_ bv4 32) (ite $x25777 (_ bv3 32) (ite $x1654 (_ bv2 32) (_ bv1 32))))))))
 (let ((?x3192 (ite $x1425 (_ bv11 32) (ite $x1285 (_ bv10 32) (ite $x1141 (_ bv9 32) (ite $x524 (_ bv8 32) (ite $x4038 (_ bv7 32) ?x4176)))))))
 (let ((?x6712 (bvadd (ite $x5324 (_ bv12 32) ?x3192) (bvadd (bvmul (_ bv0 32) (_ bv12 32)) (_ bv1 32)))))
 (let ((?x2930 (bvsub (ite (bvuge ?x6712 (_ bv2147483648 32)) (bvsub ?x6712 (_ bv0 32)) ?x6712) (_ bv1 32))))
 (let ((?x3623 (bvsmod ?x2930 (_ bv12 32))))
 (let ((?x4239 (bvadd ?x3623 (_ bv1 32))))
 (let ((?x4606 (ite (or (= ?x4239 (_ bv4 32)) (= ?x4239 (_ bv6 32)) (= ?x4239 (_ bv9 32)) (= ?x4239 (_ bv11 32))) (_ bv30 32) (_ bv31 32))))
 (let ((?x1176 (bvsdiv ?x2930 (_ bv12 32))))
 (let ((?x1915 (ite (and (bvuge ?x2930 (_ bv2147483648 32)) (and (distinct (_ bv0 32) ?x3623) true)) (bvsub ?x1176 (_ bv1 32)) ?x1176)))
 (let ((?x2258 (bvadd ?x1760 (bvadd (_ bv0 32) ?x1915))))
 (let (($x522 (or (and (= (bvsmod ?x2258 (_ bv4 32)) (_ bv0 32)) (and (distinct (bvsmod ?x2258 (_ bv100 32)) (_ bv0 32)) true)) (= (bvsmod ?x2258 (_ bv400 32)) (_ bv0 32)))))
 (let ((?x2080 (ite (= ?x4239 (_ bv2 32)) (ite $x522 (_ bv29 32) (_ bv28 32)) ?x4606)))
 (let ((?x1529 (ite (bvsgt (_ bv1 32) ?x4156) (_ bv1 32) (ite (bvsgt ?x4156 ?x2080) ?x2080 ?x4156))))
 (let ((?x1158 (ite (bvsgt (_ bv1 32) ?x1529) (_ bv1 32) (ite (bvsgt ?x1529 ?x2080) ?x2080 ?x1529))))
 (let ((?x52345 (ite (= (_ bv2 32) ?x4239) (ite $x522 (_ bv31 32) (_ bv31 32)) (ite (= (_ bv1 32) ?x4239) (ite $x522 (_ bv0 32) (_ bv0 32)) (_ bv0 32)))))
 (let ((?x2615 (ite (= (_ bv4 32) ?x4239) (ite $x522 (_ bv91 32) (_ bv90 32)) (ite (= (_ bv3 32) ?x4239) (ite $x522 (_ bv60 32) (_ bv59 32)) ?x52345))))
 (let ((?x4533 (ite (= (_ bv6 32) ?x4239) (ite $x522 (_ bv152 32) (_ bv151 32)) (ite (= (_ bv5 32) ?x4239) (ite $x522 (_ bv121 32) (_ bv120 32)) ?x2615))))
 (let ((?x6349 (ite (= (_ bv8 32) ?x4239) (ite $x522 (_ bv213 32) (_ bv212 32)) (ite (= (_ bv7 32) ?x4239) (ite $x522 (_ bv182 32) (_ bv181 32)) ?x4533))))
 (let ((?x2991 (ite (= (_ bv10 32) ?x4239) (ite $x522 (_ bv274 32) (_ bv273 32)) (ite (= (_ bv9 32) ?x4239) (ite $x522 (_ bv244 32) (_ bv243 32)) ?x6349))))
 (let ((?x3026 (ite (= (_ bv12 32) ?x4239) (ite $x522 (_ bv335 32) (_ bv334 32)) (ite (= (_ bv11 32) ?x4239) (ite $x522 (_ bv305 32) (_ bv304 32)) ?x2991))))
 (let ((?x2288 (bvadd (bvmul (_ bv365 32) (bvsub ?x2258 (_ bv1 32))) (bvsdiv (bvsub ?x2258 (_ bv1 32)) (_ bv4 32)))))
 (let ((?x721 (bvadd (bvsub ?x2288 (bvsdiv (bvsub ?x2258 (_ bv1 32)) (_ bv100 32))) (bvsdiv (bvsub ?x2258 (_ bv1 32)) (_ bv400 32)))))
 (let ((?x39091 (bvadd (bvadd (bvsub (bvadd (bvadd ?x721 ?x3026) (bvsub ?x1158 (_ bv1 32))) (_ bv730179 32)) (_ bv0 32)) (_ bv730179 32))))
 (let ((?x29875 (bvsmod ?x39091 (_ bv146097 32))))
 (let ((?x29337 (bvsdiv ?x29875 (_ bv36524 32))))
 (let ((?x4050 (ite (bvsle (_ bv4 32) ?x29337) (_ bv3 32) ?x29337)))
 (let ((?x3078 (bvsub ?x29875 (bvmul ?x4050 (_ bv36524 32)))))
 (let ((?x25740 (bvsmod ?x3078 (_ bv1461 32))))
 (let ((?x4289 (bvsdiv ?x25740 (_ bv365 32))))
 (let ((?x3723 (ite (bvsle (_ bv4 32) ?x4289) (_ bv3 32) ?x4289)))
 (let ((?x39554 (bvadd (bvadd (bvmul (bvsdiv ?x39091 (_ bv146097 32)) (_ bv400 32)) (bvmul ?x4050 (_ bv100 32))) (bvmul (bvsdiv ?x3078 (_ bv1461 32)) (_ bv4 32)))))
 (let ((?x1023 (bvadd (bvadd ?x39554 ?x3723) (_ bv1 32))))
 (let (($x511 (or (and (= (bvsmod ?x1023 (_ bv4 32)) (_ bv0 32)) (and (distinct (bvsmod ?x1023 (_ bv100 32)) (_ bv0 32)) true)) (= (bvsmod ?x1023 (_ bv400 32)) (_ bv0 32)))))
 (let ((?x3581 (bvsub ?x25740 (bvmul ?x3723 (_ bv365 32)))))
 (let ((?x830 (ite $x511 (_ bv31 32) (_ bv31 32))))
 (let (($x1268 (bvsge ?x3581 ?x830)))
 (let ((?x2382 (ite $x1268 (bvadd (bvsub ?x3581 ?x830) (_ bv1 32)) (bvadd (bvsub ?x3581 (ite $x511 (_ bv0 32) (_ bv0 32))) (_ bv1 32)))))
 (let ((?x4089 (ite $x511 (_ bv60 32) (_ bv59 32))))
 (let (($x2945 (bvsge ?x3581 ?x4089)))
 (let ((?x3167 (ite $x511 (_ bv91 32) (_ bv90 32))))
 (let (($x3201 (bvsge ?x3581 ?x3167)))
 (let ((?x20886 (ite $x3201 (bvadd (bvsub ?x3581 ?x3167) (_ bv1 32)) (ite $x2945 (bvadd (bvsub ?x3581 ?x4089) (_ bv1 32)) ?x2382))))
 (let ((?x3601 (ite $x511 (_ bv121 32) (_ bv120 32))))
 (let (($x4108 (bvsge ?x3581 ?x3601)))
 (let ((?x1988 (ite $x511 (_ bv152 32) (_ bv151 32))))
 (let (($x3493 (bvsge ?x3581 ?x1988)))
 (let ((?x2626 (ite $x3493 (bvadd (bvsub ?x3581 ?x1988) (_ bv1 32)) (ite $x4108 (bvadd (bvsub ?x3581 ?x3601) (_ bv1 32)) ?x20886))))
 (let ((?x2022 (ite $x511 (_ bv182 32) (_ bv181 32))))
 (let (($x514 (bvsge ?x3581 ?x2022)))
 (let ((?x3928 (ite $x511 (_ bv213 32) (_ bv212 32))))
 (let (($x1994 (bvsge ?x3581 ?x3928)))
 (let ((?x59874 (ite $x1994 (bvadd (bvsub ?x3581 ?x3928) (_ bv1 32)) (ite $x514 (bvadd (bvsub ?x3581 ?x2022) (_ bv1 32)) ?x2626))))
 (let ((?x6278 (ite $x511 (_ bv244 32) (_ bv243 32))))
 (let (($x3190 (bvsge ?x3581 ?x6278)))
 (let ((?x4799 (ite $x511 (_ bv274 32) (_ bv273 32))))
 (let (($x1114 (bvsge ?x3581 ?x4799)))
 (let ((?x40399 (ite $x1114 (bvadd (bvsub ?x3581 ?x4799) (_ bv1 32)) (ite $x3190 (bvadd (bvsub ?x3581 ?x6278) (_ bv1 32)) ?x59874))))
 (let ((?x3829 (ite $x511 (_ bv305 32) (_ bv304 32))))
 (let (($x1076 (bvsge ?x3581 ?x3829)))
 (let ((?x3249 (ite $x511 (_ bv335 32) (_ bv334 32))))
 (let (($x1049 (bvsge ?x3581 ?x3249)))
 (let ((?x5247 (ite $x1049 (bvadd (bvsub ?x3581 ?x3249) (_ bv1 32)) (ite $x1076 (bvadd (bvsub ?x3581 ?x3829) (_ bv1 32)) ?x40399))))
 (let (($x2475 (= (_ bv0 32) (_ bv0 32))))
 (let (($x4443 (and (= (bvsmod (ite $x2475 ?x2258 ?x1023) (_ bv4 32)) (_ bv0 32)) (and (distinct (bvsmod (ite $x2475 ?x2258 ?x1023) (_ bv100 32)) (_ bv0 32)) true))))
 (let (($x4033 (or $x4443 (= (bvsmod (ite $x2475 ?x2258 ?x1023) (_ bv400 32)) (_ bv0 32)))))
 (let ((?x3292 (ite $x3493 (_ bv6 32) (ite $x4108 (_ bv5 32) (ite $x3201 (_ bv4 32) (ite $x2945 (_ bv3 32) (ite $x1268 (_ bv2 32) (_ bv1 32))))))))
 (let ((?x21685 (ite $x1076 (_ bv11 32) (ite $x1114 (_ bv10 32) (ite $x3190 (_ bv9 32) (ite $x1994 (_ bv8 32) (ite $x514 (_ bv7 32) ?x3292)))))))
 (let ((?x2355 (ite $x2475 ?x4239 (ite $x1049 (_ bv12 32) ?x21685))))
 (let ((?x729 (ite (= (_ bv2 32) ?x2355) (ite $x4033 (_ bv31 32) (_ bv31 32)) (ite (= (_ bv1 32) ?x2355) (ite $x4033 (_ bv0 32) (_ bv0 32)) (_ bv0 32)))))
 (let ((?x20595 (ite (= (_ bv4 32) ?x2355) (ite $x4033 (_ bv91 32) (_ bv90 32)) (ite (= (_ bv3 32) ?x2355) (ite $x4033 (_ bv60 32) (_ bv59 32)) ?x729))))
 (let ((?x5456 (ite (= (_ bv6 32) ?x2355) (ite $x4033 (_ bv152 32) (_ bv151 32)) (ite (= (_ bv5 32) ?x2355) (ite $x4033 (_ bv121 32) (_ bv120 32)) ?x20595))))
 (let ((?x16244 (ite (= (_ bv8 32) ?x2355) (ite $x4033 (_ bv213 32) (_ bv212 32)) (ite (= (_ bv7 32) ?x2355) (ite $x4033 (_ bv182 32) (_ bv181 32)) ?x5456))))
 (let ((?x1096 (ite (= (_ bv10 32) ?x2355) (ite $x4033 (_ bv274 32) (_ bv273 32)) (ite (= (_ bv9 32) ?x2355) (ite $x4033 (_ bv244 32) (_ bv243 32)) ?x16244))))
 (let ((?x1155 (ite (= (_ bv12 32) ?x2355) (ite $x4033 (_ bv335 32) (_ bv334 32)) (ite (= (_ bv11 32) ?x2355) (ite $x4033 (_ bv305 32) (_ bv304 32)) ?x1096))))
 (let ((?x40155 (bvadd (bvmul (_ bv365 32) (bvsub (ite $x2475 ?x2258 ?x1023) (_ bv1 32))) (bvsdiv (bvsub (ite $x2475 ?x2258 ?x1023) (_ bv1 32)) (_ bv4 32)))))
 (let ((?x1293 (bvadd (bvsub ?x40155 (bvsdiv (bvsub (ite $x2475 ?x2258 ?x1023) (_ bv1 32)) (_ bv100 32))) (bvsdiv (bvsub (ite $x2475 ?x2258 ?x1023) (_ bv1 32)) (_ bv400 32)))))
 (let ((?x60013 (bvsub (bvadd (bvadd ?x1293 ?x1155) (bvsub (ite $x2475 ?x1158 ?x5247) (_ bv1 32))) (_ bv730179 32))))
 (= (bvadd ?x60013 (_ bv15 32)) y_days)))))))))))))))))))))))))))))))))))))))))))))))))))))))))))))))))))))))))))))))))))))))))))))))))))))))))))))))))))))))
(assert
 (bvsge y_days (_ bv8492 32)))
(check-sat)
